src/problems/cvrp/data/train_data/train_case_10.vrp
NAME : case_9
TYPE : CVRP
DIMENSION : 20
EDGE_WEIGHT_TYPE : EUC_2D
CAPACITY : 20
NODE_COORD_SECTION
1	372	799
2	944	270
3	782	216
4	597	257
5	524	887
6	616	448
7	715	397
8	830	947
9	547	416
10	765	621
11	41	367
12	136	331
13	56	666
14	487	552
15	257	337
16	790	247
17	502	856
18	452	330
19	44	81
20	746	768
DEMAND_SECTION
1	0
2	5
3	8
4	8
5	10
6	7
7	3
8	6
9	9
10	5
11	2
12	10
13	4
14	9
15	2
16	6
17	1
18	6
19	1
20	1
DEPOT_SECTION
1
-1
EOF
VEHICLE : 10
