src/problems/tsp/data/train_data/train_case_10.tsp
NAME: case_10
TYPE: TSP
DIMENSION: 10
EDGE_WEIGHT_TYPE: GEO
DISPLAY_DATA_TYPE: COORD_DISPLAY
NODE_COORD_SECTION
0001 90.00 0.00
0002 71.17 -156.47
0003 64.51 -147.43
0004 61.13 -149.53
0005 58.20 -134.27
0006 49.16 -123.07
0007 53.33 -113.28
0008 51.03 -114.05
0009 50.25 -104.39
0010 52.07 -106.38
EOF
